language Essence 1.3

letting class be function(1 --> 2, 2 --> 4, 3 --> 1, 4 --> 4, 5 --> 1, 6 --> 1, 7 --> 2, 8 --> 3)
letting deck_length be 33
letting deck_width be 71
letting length be function(1 --> 11, 2 --> 17, 3 --> 32, 4 --> 1, 5 --> 31, 6 --> 13, 7 --> 10, 8 --> 22)
letting n_classes be 4
letting n_containers be 8
letting separation be function({1, 3} --> 34)
letting width be function(1 --> 4, 2 --> 2, 3 --> 32, 4 --> 7, 5 --> 1, 6 --> 5, 7 --> 5, 8 --> 4)
